c "random instance"
p edges 150 4465
e 1 9
e 1 11
e 1 12
e 1 14
e 1 19
e 1 21
e 1 31
e 1 38
e 1 39
e 1 40
e 1 41
e 1 42
e 1 48
e 1 50
e 1 52
e 1 54
e 1 55
e 1 67
e 1 68
e 1 69
e 1 73
e 1 76
e 1 77
e 1 78
e 1 85
e 1 86
e 1 87
e 1 88
e 1 90
e 1 92
e 1 96
e 1 98
e 1 101
e 1 105
e 1 113
e 1 114
e 1 115
e 1 118
e 1 124
e 1 125
e 1 129
e 1 131
e 1 135
e 1 136
e 1 140
e 1 142
e 1 143
e 1 144
e 1 145
e 1 147
e 1 149
e 1 150
e 2 3
e 2 8
e 2 10
e 2 12
e 2 14
e 2 16
e 2 18
e 2 19
e 2 21
e 2 22
e 2 24
e 2 26
e 2 27
e 2 31
e 2 32
e 2 33
e 2 36
e 2 37
e 2 43
e 2 45
e 2 46
e 2 49
e 2 50
e 2 53
e 2 55
e 2 58
e 2 63
e 2 64
e 2 65
e 2 66
e 2 69
e 2 70
e 2 75
e 2 80
e 2 82
e 2 86
e 2 87
e 2 90
e 2 92
e 2 93
e 2 96
e 2 97
e 2 98
e 2 104
e 2 114
e 2 120
e 2 123
e 2 125
e 2 128
e 2 129
e 2 135
e 2 139
e 2 140
e 2 141
e 2 142
e 2 143
e 2 147
e 3 4
e 3 12
e 3 15
e 3 18
e 3 19
e 3 20
e 3 21
e 3 26
e 3 27
e 3 28
e 3 30
e 3 33
e 3 37
e 3 39
e 3 40
e 3 41
e 3 43
e 3 48
e 3 50
e 3 52
e 3 60
e 3 61
e 3 62
e 3 63
e 3 64
e 3 67
e 3 70
e 3 72
e 3 88
e 3 92
e 3 93
e 3 98
e 3 99
e 3 100
e 3 102
e 3 105
e 3 108
e 3 109
e 3 111
e 3 112
e 3 113
e 3 115
e 3 116
e 3 118
e 3 119
e 3 120
e 3 124
e 3 125
e 3 126
e 3 127
e 3 132
e 3 135
e 3 138
e 3 141
e 3 143
e 3 144
e 3 145
e 4 5
e 4 6
e 4 8
e 4 9
e 4 10
e 4 11
e 4 12
e 4 13
e 4 14
e 4 16
e 4 21
e 4 22
e 4 24
e 4 25
e 4 28
e 4 30
e 4 36
e 4 38
e 4 40
e 4 41
e 4 42
e 4 43
e 4 44
e 4 47
e 4 48
e 4 50
e 4 52
e 4 55
e 4 56
e 4 62
e 4 63
e 4 65
e 4 71
e 4 73
e 4 74
e 4 76
e 4 77
e 4 82
e 4 83
e 4 85
e 4 86
e 4 89
e 4 90
e 4 93
e 4 100
e 4 106
e 4 107
e 4 110
e 4 111
e 4 113
e 4 115
e 4 116
e 4 118
e 4 125
e 4 126
e 4 129
e 4 130
e 4 132
e 4 137
e 4 138
e 4 141
e 4 143
e 4 146
e 4 147
e 4 148
e 4 149
e 5 6
e 5 7
e 5 10
e 5 13
e 5 15
e 5 16
e 5 18
e 5 23
e 5 33
e 5 35
e 5 39
e 5 40
e 5 42
e 5 45
e 5 46
e 5 50
e 5 51
e 5 55
e 5 58
e 5 60
e 5 61
e 5 66
e 5 68
e 5 69
e 5 71
e 5 73
e 5 74
e 5 76
e 5 78
e 5 81
e 5 82
e 5 83
e 5 84
e 5 88
e 5 93
e 5 94
e 5 95
e 5 98
e 5 99
e 5 102
e 5 103
e 5 108
e 5 113
e 5 115
e 5 118
e 5 119
e 5 123
e 5 125
e 5 126
e 5 127
e 5 137
e 5 140
e 5 147
e 5 148
e 5 150
e 6 7
e 6 8
e 6 11
e 6 14
e 6 15
e 6 16
e 6 17
e 6 20
e 6 22
e 6 23
e 6 24
e 6 26
e 6 28
e 6 30
e 6 36
e 6 37
e 6 38
e 6 40
e 6 42
e 6 43
e 6 44
e 6 49
e 6 51
e 6 58
e 6 61
e 6 62
e 6 63
e 6 65
e 6 70
e 6 71
e 6 79
e 6 81
e 6 82
e 6 84
e 6 86
e 6 87
e 6 89
e 6 91
e 6 92
e 6 98
e 6 100
e 6 101
e 6 102
e 6 104
e 6 105
e 6 106
e 6 108
e 6 112
e 6 113
e 6 114
e 6 120
e 6 121
e 6 128
e 6 131
e 6 132
e 6 134
e 6 136
e 6 138
e 6 141
e 6 143
e 7 11
e 7 13
e 7 14
e 7 19
e 7 20
e 7 22
e 7 23
e 7 24
e 7 27
e 7 28
e 7 31
e 7 33
e 7 34
e 7 39
e 7 42
e 7 44
e 7 45
e 7 52
e 7 56
e 7 57
e 7 58
e 7 59
e 7 62
e 7 67
e 7 71
e 7 75
e 7 78
e 7 85
e 7 86
e 7 92
e 7 95
e 7 101
e 7 104
e 7 107
e 7 111
e 7 114
e 7 117
e 7 118
e 7 119
e 7 121
e 7 123
e 7 125
e 7 129
e 7 130
e 7 132
e 7 135
e 7 138
e 7 139
e 7 141
e 7 148
e 7 150
e 8 17
e 8 21
e 8 22
e 8 25
e 8 26
e 8 29
e 8 34
e 8 36
e 8 37
e 8 48
e 8 50
e 8 52
e 8 57
e 8 59
e 8 65
e 8 66
e 8 68
e 8 72
e 8 73
e 8 77
e 8 78
e 8 79
e 8 81
e 8 85
e 8 89
e 8 92
e 8 94
e 8 95
e 8 98
e 8 104
e 8 107
e 8 108
e 8 110
e 8 113
e 8 114
e 8 116
e 8 117
e 8 120
e 8 125
e 8 126
e 8 129
e 8 135
e 8 136
e 8 139
e 8 140
e 8 141
e 8 142
e 8 144
e 8 148
e 9 11
e 9 12
e 9 14
e 9 17
e 9 19
e 9 20
e 9 21
e 9 22
e 9 23
e 9 24
e 9 25
e 9 28
e 9 29
e 9 31
e 9 32
e 9 33
e 9 37
e 9 40
e 9 46
e 9 52
e 9 54
e 9 55
e 9 56
e 9 57
e 9 58
e 9 59
e 9 60
e 9 62
e 9 66
e 9 68
e 9 72
e 9 74
e 9 76
e 9 79
e 9 81
e 9 83
e 9 90
e 9 91
e 9 93
e 9 95
e 9 99
e 9 101
e 9 102
e 9 108
e 9 111
e 9 117
e 9 120
e 9 121
e 9 126
e 9 128
e 9 132
e 9 133
e 9 136
e 9 138
e 9 139
e 9 140
e 9 145
e 10 11
e 10 15
e 10 18
e 10 23
e 10 24
e 10 25
e 10 27
e 10 29
e 10 32
e 10 37
e 10 39
e 10 41
e 10 42
e 10 44
e 10 45
e 10 53
e 10 54
e 10 57
e 10 61
e 10 62
e 10 63
e 10 64
e 10 66
e 10 67
e 10 70
e 10 71
e 10 73
e 10 74
e 10 77
e 10 80
e 10 81
e 10 86
e 10 87
e 10 88
e 10 89
e 10 95
e 10 98
e 10 99
e 10 100
e 10 103
e 10 104
e 10 106
e 10 109
e 10 110
e 10 111
e 10 112
e 10 114
e 10 116
e 10 117
e 10 119
e 10 124
e 10 126
e 10 129
e 10 130
e 10 132
e 10 138
e 10 140
e 10 141
e 10 142
e 10 146
e 10 148
e 10 150
e 11 16
e 11 17
e 11 19
e 11 20
e 11 24
e 11 26
e 11 31
e 11 33
e 11 34
e 11 35
e 11 37
e 11 41
e 11 42
e 11 43
e 11 44
e 11 45
e 11 46
e 11 47
e 11 50
e 11 51
e 11 52
e 11 54
e 11 55
e 11 56
e 11 58
e 11 61
e 11 64
e 11 65
e 11 68
e 11 69
e 11 70
e 11 74
e 11 77
e 11 78
e 11 80
e 11 83
e 11 84
e 11 91
e 11 93
e 11 95
e 11 98
e 11 100
e 11 101
e 11 103
e 11 104
e 11 105
e 11 106
e 11 112
e 11 114
e 11 115
e 11 120
e 11 121
e 11 128
e 11 132
e 11 136
e 11 138
e 11 140
e 11 148
e 11 149
e 12 14
e 12 17
e 12 21
e 12 23
e 12 25
e 12 26
e 12 27
e 12 33
e 12 34
e 12 39
e 12 41
e 12 45
e 12 47
e 12 48
e 12 50
e 12 51
e 12 52
e 12 57
e 12 58
e 12 59
e 12 62
e 12 64
e 12 68
e 12 74
e 12 75
e 12 77
e 12 79
e 12 82
e 12 83
e 12 84
e 12 87
e 12 88
e 12 96
e 12 100
e 12 103
e 12 104
e 12 106
e 12 109
e 12 111
e 12 113
e 12 116
e 12 117
e 12 121
e 12 130
e 12 131
e 12 132
e 12 133
e 12 134
e 12 135
e 12 136
e 12 137
e 12 141
e 12 143
e 12 144
e 12 147
e 12 148
e 12 150
e 13 14
e 13 20
e 13 21
e 13 22
e 13 27
e 13 30
e 13 31
e 13 34
e 13 35
e 13 37
e 13 41
e 13 43
e 13 46
e 13 47
e 13 48
e 13 52
e 13 54
e 13 56
e 13 58
e 13 59
e 13 60
e 13 61
e 13 63
e 13 64
e 13 65
e 13 69
e 13 74
e 13 76
e 13 77
e 13 78
e 13 80
e 13 81
e 13 82
e 13 83
e 13 84
e 13 85
e 13 86
e 13 88
e 13 89
e 13 94
e 13 96
e 13 97
e 13 99
e 13 100
e 13 105
e 13 109
e 13 110
e 13 112
e 13 113
e 13 115
e 13 116
e 13 117
e 13 119
e 13 123
e 13 125
e 13 126
e 13 127
e 13 128
e 13 129
e 13 131
e 13 132
e 13 133
e 13 134
e 13 136
e 13 137
e 13 146
e 13 148
e 13 150
e 14 15
e 14 17
e 14 21
e 14 27
e 14 32
e 14 33
e 14 34
e 14 35
e 14 38
e 14 43
e 14 45
e 14 46
e 14 48
e 14 55
e 14 57
e 14 66
e 14 67
e 14 69
e 14 70
e 14 79
e 14 80
e 14 82
e 14 86
e 14 87
e 14 91
e 14 93
e 14 97
e 14 98
e 14 100
e 14 101
e 14 102
e 14 104
e 14 110
e 14 111
e 14 113
e 14 114
e 14 116
e 14 121
e 14 122
e 14 123
e 14 126
e 14 130
e 14 133
e 14 136
e 14 141
e 14 142
e 14 146
e 14 147
e 14 149
e 15 16
e 15 20
e 15 21
e 15 24
e 15 27
e 15 29
e 15 30
e 15 32
e 15 37
e 15 42
e 15 44
e 15 49
e 15 51
e 15 54
e 15 57
e 15 58
e 15 60
e 15 67
e 15 68
e 15 77
e 15 83
e 15 86
e 15 87
e 15 88
e 15 89
e 15 97
e 15 100
e 15 105
e 15 106
e 15 108
e 15 109
e 15 112
e 15 118
e 15 121
e 15 123
e 15 124
e 15 126
e 15 127
e 15 131
e 15 132
e 15 138
e 15 141
e 15 144
e 15 146
e 15 147
e 15 150
e 16 19
e 16 20
e 16 21
e 16 27
e 16 28
e 16 29
e 16 30
e 16 32
e 16 34
e 16 35
e 16 38
e 16 42
e 16 44
e 16 50
e 16 54
e 16 56
e 16 59
e 16 64
e 16 65
e 16 70
e 16 73
e 16 75
e 16 78
e 16 79
e 16 80
e 16 81
e 16 82
e 16 83
e 16 85
e 16 86
e 16 100
e 16 105
e 16 108
e 16 109
e 16 116
e 16 117
e 16 118
e 16 119
e 16 120
e 16 125
e 16 127
e 16 130
e 16 132
e 16 135
e 16 138
e 16 141
e 16 144
e 16 146
e 16 148
e 16 149
e 17 18
e 17 19
e 17 20
e 17 24
e 17 25
e 17 26
e 17 29
e 17 35
e 17 38
e 17 51
e 17 52
e 17 53
e 17 54
e 17 57
e 17 58
e 17 64
e 17 69
e 17 71
e 17 74
e 17 75
e 17 79
e 17 85
e 17 86
e 17 87
e 17 94
e 17 99
e 17 102
e 17 103
e 17 107
e 17 113
e 17 114
e 17 115
e 17 117
e 17 128
e 17 129
e 17 135
e 17 136
e 17 137
e 17 138
e 17 139
e 17 140
e 17 141
e 17 145
e 17 146
e 18 20
e 18 21
e 18 24
e 18 27
e 18 28
e 18 29
e 18 30
e 18 32
e 18 34
e 18 35
e 18 38
e 18 39
e 18 42
e 18 43
e 18 45
e 18 50
e 18 52
e 18 56
e 18 57
e 18 59
e 18 60
e 18 61
e 18 65
e 18 68
e 18 71
e 18 72
e 18 75
e 18 78
e 18 79
e 18 80
e 18 83
e 18 85
e 18 88
e 18 89
e 18 90
e 18 96
e 18 97
e 18 101
e 18 103
e 18 104
e 18 106
e 18 108
e 18 109
e 18 110
e 18 113
e 18 114
e 18 117
e 18 118
e 18 120
e 18 121
e 18 127
e 18 128
e 18 133
e 18 134
e 18 135
e 18 136
e 18 137
e 18 139
e 18 141
e 18 146
e 18 147
e 18 150
e 19 20
e 19 23
e 19 24
e 19 28
e 19 29
e 19 31
e 19 32
e 19 33
e 19 34
e 19 35
e 19 37
e 19 40
e 19 41
e 19 45
e 19 48
e 19 50
e 19 66
e 19 69
e 19 71
e 19 74
e 19 75
e 19 77
e 19 82
e 19 83
e 19 84
e 19 85
e 19 86
e 19 87
e 19 88
e 19 89
e 19 90
e 19 91
e 19 92
e 19 94
e 19 95
e 19 96
e 19 97
e 19 99
e 19 101
e 19 104
e 19 106
e 19 109
e 19 112
e 19 113
e 19 117
e 19 123
e 19 124
e 19 125
e 19 126
e 19 127
e 19 128
e 19 136
e 19 142
e 19 144
e 19 146
e 19 150
e 20 22
e 20 26
e 20 27
e 20 29
e 20 30
e 20 34
e 20 37
e 20 39
e 20 40
e 20 41
e 20 42
e 20 49
e 20 53
e 20 58
e 20 63
e 20 64
e 20 66
e 20 69
e 20 75
e 20 76
e 20 78
e 20 79
e 20 81
e 20 84
e 20 85
e 20 86
e 20 91
e 20 95
e 20 98
e 20 101
e 20 102
e 20 104
e 20 105
e 20 109
e 20 113
e 20 115
e 20 116
e 20 117
e 20 118
e 20 119
e 20 122
e 20 132
e 20 133
e 20 135
e 20 142
e 20 143
e 20 144
e 20 146
e 21 22
e 21 23
e 21 29
e 21 33
e 21 34
e 21 35
e 21 37
e 21 42
e 21 43
e 21 45
e 21 55
e 21 58
e 21 59
e 21 60
e 21 65
e 21 70
e 21 73
e 21 75
e 21 78
e 21 80
e 21 82
e 21 89
e 21 90
e 21 91
e 21 92
e 21 93
e 21 95
e 21 97
e 21 100
e 21 101
e 21 102
e 21 105
e 21 106
e 21 107
e 21 108
e 21 110
e 21 115
e 21 116
e 21 122
e 21 123
e 21 128
e 21 131
e 21 132
e 21 134
e 21 137
e 21 139
e 21 140
e 21 142
e 21 150
e 22 23
e 22 30
e 22 31
e 22 34
e 22 36
e 22 37
e 22 39
e 22 40
e 22 41
e 22 43
e 22 45
e 22 46
e 22 49
e 22 50
e 22 54
e 22 57
e 22 61
e 22 64
e 22 73
e 22 74
e 22 83
e 22 85
e 22 86
e 22 90
e 22 91
e 22 93
e 22 96
e 22 100
e 22 103
e 22 105
e 22 110
e 22 113
e 22 115
e 22 116
e 22 119
e 22 121
e 22 122
e 22 125
e 22 126
e 22 128
e 22 130
e 22 131
e 22 132
e 22 138
e 22 141
e 22 142
e 22 143
e 22 144
e 22 146
e 22 147
e 22 149
e 22 150
e 23 24
e 23 27
e 23 28
e 23 31
e 23 44
e 23 45
e 23 49
e 23 52
e 23 53
e 23 55
e 23 56
e 23 57
e 23 58
e 23 63
e 23 64
e 23 69
e 23 75
e 23 79
e 23 81
e 23 85
e 23 87
e 23 88
e 23 89
e 23 95
e 23 96
e 23 98
e 23 99
e 23 102
e 23 104
e 23 105
e 23 107
e 23 111
e 23 112
e 23 121
e 23 125
e 23 127
e 23 129
e 23 130
e 23 132
e 23 133
e 23 135
e 23 138
e 23 142
e 23 143
e 23 146
e 24 26
e 24 28
e 24 30
e 24 31
e 24 33
e 24 36
e 24 39
e 24 40
e 24 41
e 24 42
e 24 45
e 24 46
e 24 50
e 24 51
e 24 52
e 24 66
e 24 67
e 24 70
e 24 74
e 24 80
e 24 81
e 24 82
e 24 84
e 24 86
e 24 88
e 24 90
e 24 91
e 24 99
e 24 102
e 24 103
e 24 109
e 24 113
e 24 114
e 24 116
e 24 118
e 24 121
e 24 122
e 24 124
e 24 126
e 24 127
e 24 131
e 24 132
e 24 134
e 24 138
e 24 141
e 24 142
e 24 143
e 24 145
e 24 146
e 24 149
e 25 26
e 25 29
e 25 32
e 25 35
e 25 39
e 25 42
e 25 47
e 25 48
e 25 49
e 25 51
e 25 54
e 25 57
e 25 58
e 25 60
e 25 65
e 25 67
e 25 75
e 25 77
e 25 78
e 25 79
e 25 82
e 25 86
e 25 87
e 25 88
e 25 92
e 25 94
e 25 96
e 25 100
e 25 105
e 25 106
e 25 107
e 25 108
e 25 110
e 25 113
e 25 115
e 25 118
e 25 121
e 25 123
e 25 126
e 25 128
e 25 130
e 25 131
e 25 137
e 25 140
e 25 143
e 25 145
e 25 148
e 25 149
e 25 150
e 26 28
e 26 29
e 26 30
e 26 31
e 26 34
e 26 36
e 26 38
e 26 39
e 26 41
e 26 46
e 26 51
e 26 53
e 26 54
e 26 60
e 26 61
e 26 63
e 26 65
e 26 68
e 26 74
e 26 75
e 26 79
e 26 80
e 26 81
e 26 89
e 26 90
e 26 92
e 26 94
e 26 96
e 26 102
e 26 104
e 26 108
e 26 109
e 26 110
e 26 112
e 26 114
e 26 115
e 26 116
e 26 118
e 26 120
e 26 123
e 26 124
e 26 125
e 26 126
e 26 129
e 26 131
e 26 132
e 26 136
e 26 138
e 26 140
e 26 141
e 26 142
e 26 149
e 27 29
e 27 30
e 27 31
e 27 32
e 27 39
e 27 42
e 27 46
e 27 52
e 27 54
e 27 58
e 27 59
e 27 61
e 27 64
e 27 65
e 27 67
e 27 69
e 27 71
e 27 75
e 27 76
e 27 80
e 27 82
e 27 84
e 27 88
e 27 89
e 27 90
e 27 91
e 27 92
e 27 94
e 27 95
e 27 100
e 27 101
e 27 102
e 27 104
e 27 108
e 27 116
e 27 120
e 27 121
e 27 122
e 27 123
e 27 126
e 27 127
e 27 129
e 27 131
e 27 136
e 27 137
e 27 141
e 27 142
e 27 145
e 27 146
e 27 147
e 27 148
e 28 33
e 28 41
e 28 46
e 28 48
e 28 51
e 28 56
e 28 57
e 28 58
e 28 59
e 28 60
e 28 61
e 28 65
e 28 66
e 28 69
e 28 70
e 28 71
e 28 72
e 28 78
e 28 80
e 28 81
e 28 83
e 28 84
e 28 86
e 28 87
e 28 88
e 28 89
e 28 92
e 28 93
e 28 94
e 28 96
e 28 103
e 28 104
e 28 105
e 28 106
e 28 107
e 28 109
e 28 112
e 28 113
e 28 114
e 28 117
e 28 118
e 28 119
e 28 121
e 28 122
e 28 126
e 28 127
e 28 133
e 28 135
e 28 138
e 28 139
e 28 140
e 28 141
e 28 143
e 28 148
e 29 31
e 29 32
e 29 34
e 29 35
e 29 37
e 29 40
e 29 41
e 29 43
e 29 44
e 29 45
e 29 56
e 29 57
e 29 59
e 29 60
e 29 65
e 29 72
e 29 74
e 29 75
e 29 78
e 29 79
e 29 86
e 29 89
e 29 91
e 29 93
e 29 97
e 29 105
e 29 108
e 29 111
e 29 112
e 29 113
e 29 114
e 29 115
e 29 117
e 29 122
e 29 124
e 29 128
e 29 131
e 29 132
e 29 135
e 29 138
e 29 141
e 29 142
e 30 31
e 30 32
e 30 34
e 30 35
e 30 40
e 30 45
e 30 47
e 30 51
e 30 55
e 30 58
e 30 62
e 30 64
e 30 66
e 30 69
e 30 73
e 30 76
e 30 78
e 30 79
e 30 84
e 30 86
e 30 87
e 30 88
e 30 91
e 30 94
e 30 95
e 30 96
e 30 98
e 30 100
e 30 102
e 30 103
e 30 106
e 30 110
e 30 112
e 30 119
e 30 120
e 30 130
e 30 133
e 30 139
e 30 140
e 30 142
e 30 146
e 30 150
e 31 34
e 31 36
e 31 37
e 31 42
e 31 46
e 31 48
e 31 49
e 31 50
e 31 51
e 31 52
e 31 53
e 31 55
e 31 59
e 31 60
e 31 62
e 31 64
e 31 66
e 31 67
e 31 71
e 31 72
e 31 73
e 31 76
e 31 80
e 31 81
e 31 84
e 31 86
e 31 87
e 31 90
e 31 92
e 31 93
e 31 94
e 31 99
e 31 100
e 31 102
e 31 105
e 31 106
e 31 112
e 31 113
e 31 115
e 31 117
e 31 118
e 31 119
e 31 120
e 31 123
e 31 126
e 31 130
e 31 135
e 31 137
e 31 138
e 31 145
e 31 146
e 31 148
e 31 149
e 31 150
e 32 33
e 32 35
e 32 36
e 32 37
e 32 39
e 32 43
e 32 46
e 32 47
e 32 49
e 32 53
e 32 58
e 32 60
e 32 63
e 32 65
e 32 66
e 32 68
e 32 72
e 32 73
e 32 75
e 32 76
e 32 77
e 32 78
e 32 79
e 32 81
e 32 87
e 32 88
e 32 93
e 32 94
e 32 96
e 32 97
e 32 98
e 32 101
e 32 104
e 32 106
e 32 113
e 32 114
e 32 116
e 32 117
e 32 119
e 32 123
e 32 124
e 32 127
e 32 133
e 32 135
e 32 137
e 32 138
e 32 140
e 32 143
e 32 144
e 32 146
e 32 148
e 32 150
e 33 35
e 33 36
e 33 37
e 33 40
e 33 41
e 33 43
e 33 46
e 33 47
e 33 50
e 33 55
e 33 59
e 33 60
e 33 61
e 33 62
e 33 63
e 33 64
e 33 70
e 33 74
e 33 77
e 33 80
e 33 81
e 33 89
e 33 93
e 33 96
e 33 98
e 33 99
e 33 102
e 33 103
e 33 104
e 33 111
e 33 113
e 33 115
e 33 117
e 33 119
e 33 124
e 33 126
e 33 129
e 33 132
e 33 134
e 33 135
e 33 136
e 33 140
e 33 142
e 33 144
e 33 147
e 33 148
e 33 150
e 34 36
e 34 37
e 34 44
e 34 47
e 34 49
e 34 50
e 34 51
e 34 53
e 34 57
e 34 59
e 34 63
e 34 64
e 34 66
e 34 67
e 34 68
e 34 69
e 34 72
e 34 75
e 34 77
e 34 79
e 34 80
e 34 82
e 34 84
e 34 85
e 34 86
e 34 87
e 34 89
e 34 90
e 34 93
e 34 98
e 34 99
e 34 101
e 34 106
e 34 110
e 34 111
e 34 115
e 34 117
e 34 121
e 34 127
e 34 128
e 34 131
e 34 132
e 34 145
e 34 150
e 35 39
e 35 41
e 35 42
e 35 44
e 35 46
e 35 52
e 35 54
e 35 55
e 35 56
e 35 59
e 35 60
e 35 62
e 35 68
e 35 70
e 35 74
e 35 77
e 35 80
e 35 85
e 35 86
e 35 89
e 35 93
e 35 94
e 35 102
e 35 103
e 35 104
e 35 108
e 35 111
e 35 113
e 35 117
e 35 120
e 35 122
e 35 123
e 35 128
e 35 130
e 35 134
e 35 137
e 35 141
e 35 142
e 36 37
e 36 38
e 36 41
e 36 42
e 36 48
e 36 53
e 36 54
e 36 55
e 36 60
e 36 61
e 36 62
e 36 64
e 36 65
e 36 71
e 36 73
e 36 74
e 36 76
e 36 77
e 36 80
e 36 85
e 36 86
e 36 87
e 36 91
e 36 93
e 36 94
e 36 99
e 36 103
e 36 105
e 36 108
e 36 112
e 36 115
e 36 116
e 36 117
e 36 119
e 36 120
e 36 121
e 36 122
e 36 123
e 36 124
e 36 125
e 36 126
e 36 127
e 36 129
e 36 136
e 36 138
e 36 139
e 36 141
e 36 146
e 36 147
e 36 150
e 37 38
e 37 39
e 37 43
e 37 45
e 37 46
e 37 47
e 37 49
e 37 51
e 37 52
e 37 57
e 37 62
e 37 72
e 37 73
e 37 74
e 37 75
e 37 77
e 37 78
e 37 79
e 37 84
e 37 85
e 37 87
e 37 92
e 37 93
e 37 94
e 37 96
e 37 97
e 37 98
e 37 100
e 37 102
e 37 103
e 37 104
e 37 105
e 37 107
e 37 108
e 37 110
e 37 111
e 37 113
e 37 115
e 37 117
e 37 121
e 37 123
e 37 124
e 37 126
e 37 128
e 37 134
e 37 135
e 37 136
e 37 137
e 37 140
e 37 142
e 38 41
e 38 42
e 38 43
e 38 45
e 38 46
e 38 47
e 38 49
e 38 50
e 38 54
e 38 55
e 38 56
e 38 59
e 38 60
e 38 67
e 38 70
e 38 76
e 38 78
e 38 85
e 38 86
e 38 87
e 38 88
e 38 90
e 38 91
e 38 93
e 38 95
e 38 96
e 38 97
e 38 98
e 38 101
e 38 103
e 38 104
e 38 108
e 38 109
e 38 118
e 38 120
e 38 126
e 38 128
e 38 129
e 38 130
e 38 131
e 38 132
e 38 133
e 38 134
e 38 136
e 38 138
e 38 139
e 38 141
e 38 142
e 39 40
e 39 45
e 39 46
e 39 47
e 39 48
e 39 49
e 39 51
e 39 52
e 39 58
e 39 61
e 39 63
e 39 69
e 39 70
e 39 71
e 39 73
e 39 79
e 39 80
e 39 82
e 39 85
e 39 88
e 39 94
e 39 97
e 39 99
e 39 100
e 39 101
e 39 102
e 39 103
e 39 104
e 39 107
e 39 110
e 39 112
e 39 114
e 39 117
e 39 118
e 39 119
e 39 121
e 39 123
e 39 124
e 39 125
e 39 128
e 39 129
e 39 131
e 39 132
e 39 137
e 39 140
e 39 146
e 40 41
e 40 42
e 40 43
e 40 44
e 40 51
e 40 54
e 40 58
e 40 59
e 40 60
e 40 62
e 40 65
e 40 67
e 40 70
e 40 71
e 40 75
e 40 77
e 40 78
e 40 80
e 40 81
e 40 85
e 40 86
e 40 91
e 40 93
e 40 97
e 40 101
e 40 107
e 40 111
e 40 112
e 40 118
e 40 120
e 40 121
e 40 123
e 40 124
e 40 125
e 40 130
e 40 131
e 40 132
e 40 133
e 40 136
e 40 137
e 40 138
e 40 139
e 40 143
e 40 145
e 40 147
e 40 148
e 41 42
e 41 44
e 41 45
e 41 46
e 41 48
e 41 49
e 41 52
e 41 54
e 41 57
e 41 61
e 41 63
e 41 67
e 41 68
e 41 73
e 41 75
e 41 76
e 41 77
e 41 79
e 41 80
e 41 81
e 41 83
e 41 85
e 41 87
e 41 88
e 41 91
e 41 94
e 41 97
e 41 98
e 41 99
e 41 100
e 41 108
e 41 109
e 41 112
e 41 115
e 41 117
e 41 120
e 41 124
e 41 125
e 41 129
e 41 131
e 41 132
e 41 136
e 41 139
e 41 140
e 41 141
e 41 143
e 42 43
e 42 46
e 42 55
e 42 57
e 42 58
e 42 61
e 42 63
e 42 64
e 42 66
e 42 72
e 42 73
e 42 78
e 42 79
e 42 80
e 42 81
e 42 83
e 42 88
e 42 89
e 42 90
e 42 91
e 42 94
e 42 95
e 42 97
e 42 102
e 42 108
e 42 111
e 42 120
e 42 121
e 42 123
e 42 124
e 42 125
e 42 129
e 42 130
e 42 132
e 42 137
e 42 143
e 42 149
e 42 150
e 43 44
e 43 45
e 43 47
e 43 49
e 43 58
e 43 59
e 43 60
e 43 63
e 43 64
e 43 73
e 43 74
e 43 75
e 43 77
e 43 78
e 43 79
e 43 81
e 43 85
e 43 87
e 43 88
e 43 89
e 43 96
e 43 97
e 43 98
e 43 100
e 43 101
e 43 103
e 43 105
e 43 111
e 43 112
e 43 120
e 43 124
e 43 126
e 43 130
e 43 131
e 43 133
e 43 137
e 43 139
e 43 141
e 43 143
e 43 144
e 43 145
e 44 47
e 44 49
e 44 52
e 44 54
e 44 60
e 44 66
e 44 67
e 44 69
e 44 70
e 44 71
e 44 72
e 44 73
e 44 74
e 44 76
e 44 79
e 44 80
e 44 82
e 44 87
e 44 88
e 44 95
e 44 96
e 44 99
e 44 101
e 44 103
e 44 104
e 44 108
e 44 110
e 44 113
e 44 114
e 44 116
e 44 117
e 44 118
e 44 119
e 44 120
e 44 122
e 44 124
e 44 127
e 44 128
e 44 129
e 44 135
e 44 137
e 44 147
e 44 149
e 44 150
e 45 49
e 45 50
e 45 53
e 45 54
e 45 55
e 45 60
e 45 65
e 45 68
e 45 70
e 45 71
e 45 72
e 45 73
e 45 75
e 45 76
e 45 78
e 45 79
e 45 82
e 45 83
e 45 88
e 45 90
e 45 94
e 45 95
e 45 99
e 45 100
e 45 103
e 45 105
e 45 107
e 45 108
e 45 109
e 45 110
e 45 112
e 45 113
e 45 115
e 45 124
e 45 129
e 45 131
e 45 136
e 45 140
e 45 141
e 45 146
e 45 148
e 45 149
e 46 50
e 46 53
e 46 55
e 46 57
e 46 62
e 46 64
e 46 65
e 46 66
e 46 70
e 46 71
e 46 76
e 46 77
e 46 78
e 46 82
e 46 85
e 46 87
e 46 89
e 46 91
e 46 92
e 46 93
e 46 94
e 46 97
e 46 106
e 46 108
e 46 110
e 46 111
e 46 113
e 46 114
e 46 115
e 46 118
e 46 121
e 46 122
e 46 123
e 46 125
e 46 127
e 46 128
e 46 129
e 46 132
e 46 133
e 46 136
e 46 137
e 46 138
e 46 141
e 46 144
e 46 145
e 46 150
e 47 48
e 47 49
e 47 51
e 47 54
e 47 55
e 47 62
e 47 63
e 47 65
e 47 66
e 47 68
e 47 71
e 47 75
e 47 76
e 47 77
e 47 80
e 47 83
e 47 84
e 47 85
e 47 86
e 47 88
e 47 92
e 47 93
e 47 95
e 47 104
e 47 107
e 47 108
e 47 113
e 47 114
e 47 115
e 47 117
e 47 119
e 47 120
e 47 121
e 47 122
e 47 123
e 47 125
e 47 129
e 47 131
e 47 134
e 47 136
e 47 142
e 47 143
e 47 145
e 47 147
e 47 148
e 47 150
e 48 49
e 48 50
e 48 51
e 48 52
e 48 56
e 48 59
e 48 62
e 48 65
e 48 69
e 48 71
e 48 74
e 48 75
e 48 76
e 48 77
e 48 81
e 48 83
e 48 84
e 48 85
e 48 87
e 48 88
e 48 91
e 48 92
e 48 95
e 48 98
e 48 99
e 48 104
e 48 106
e 48 108
e 48 113
e 48 114
e 48 115
e 48 121
e 48 127
e 48 128
e 48 129
e 48 136
e 48 137
e 48 143
e 49 50
e 49 51
e 49 52
e 49 53
e 49 55
e 49 56
e 49 57
e 49 58
e 49 59
e 49 60
e 49 62
e 49 63
e 49 66
e 49 70
e 49 74
e 49 75
e 49 93
e 49 94
e 49 95
e 49 96
e 49 102
e 49 103
e 49 108
e 49 109
e 49 110
e 49 113
e 49 116
e 49 117
e 49 118
e 49 125
e 49 126
e 49 128
e 49 129
e 49 131
e 49 134
e 49 136
e 49 142
e 49 146
e 49 149
e 49 150
e 50 52
e 50 54
e 50 55
e 50 63
e 50 65
e 50 67
e 50 69
e 50 74
e 50 78
e 50 80
e 50 82
e 50 83
e 50 87
e 50 88
e 50 90
e 50 102
e 50 105
e 50 106
e 50 107
e 50 109
e 50 110
e 50 111
e 50 112
e 50 117
e 50 118
e 50 119
e 50 120
e 50 122
e 50 124
e 50 125
e 50 129
e 50 137
e 50 138
e 50 140
e 50 144
e 50 147
e 50 149
e 51 53
e 51 54
e 51 56
e 51 57
e 51 60
e 51 61
e 51 62
e 51 65
e 51 67
e 51 68
e 51 72
e 51 74
e 51 77
e 51 80
e 51 82
e 51 83
e 51 84
e 51 87
e 51 88
e 51 89
e 51 90
e 51 92
e 51 95
e 51 96
e 51 97
e 51 98
e 51 106
e 51 108
e 51 109
e 51 110
e 51 114
e 51 115
e 51 116
e 51 117
e 51 118
e 51 119
e 51 122
e 51 127
e 51 133
e 51 136
e 51 138
e 51 139
e 51 140
e 51 142
e 51 147
e 51 149
e 52 56
e 52 59
e 52 61
e 52 62
e 52 64
e 52 65
e 52 66
e 52 67
e 52 70
e 52 73
e 52 85
e 52 88
e 52 89
e 52 90
e 52 93
e 52 94
e 52 95
e 52 96
e 52 97
e 52 98
e 52 103
e 52 106
e 52 109
e 52 115
e 52 117
e 52 118
e 52 119
e 52 121
e 52 122
e 52 124
e 52 126
e 52 128
e 52 129
e 52 130
e 52 131
e 52 132
e 52 133
e 52 139
e 52 142
e 52 145
e 53 55
e 53 59
e 53 60
e 53 62
e 53 64
e 53 69
e 53 72
e 53 75
e 53 79
e 53 83
e 53 87
e 53 89
e 53 90
e 53 91
e 53 92
e 53 100
e 53 103
e 53 105
e 53 106
e 53 107
e 53 108
e 53 109
e 53 111
e 53 113
e 53 115
e 53 118
e 53 121
e 53 122
e 53 123
e 53 124
e 53 127
e 53 131
e 53 132
e 53 133
e 53 134
e 53 135
e 53 137
e 53 138
e 53 139
e 53 142
e 53 143
e 53 145
e 53 146
e 53 147
e 53 150
e 54 55
e 54 58
e 54 60
e 54 63
e 54 66
e 54 67
e 54 68
e 54 70
e 54 71
e 54 72
e 54 79
e 54 81
e 54 82
e 54 86
e 54 89
e 54 90
e 54 92
e 54 95
e 54 96
e 54 99
e 54 101
e 54 103
e 54 108
e 54 110
e 54 114
e 54 120
e 54 121
e 54 122
e 54 124
e 54 129
e 54 136
e 54 138
e 54 141
e 54 142
e 54 143
e 54 144
e 54 146
e 54 147
e 54 148
e 54 150
e 55 56
e 55 57
e 55 62
e 55 64
e 55 71
e 55 73
e 55 74
e 55 75
e 55 80
e 55 82
e 55 83
e 55 86
e 55 93
e 55 94
e 55 95
e 55 96
e 55 97
e 55 99
e 55 100
e 55 101
e 55 102
e 55 104
e 55 105
e 55 107
e 55 112
e 55 114
e 55 117
e 55 118
e 55 120
e 55 122
e 55 125
e 55 126
e 55 129
e 55 141
e 55 143
e 55 145
e 55 150
e 56 57
e 56 58
e 56 62
e 56 63
e 56 66
e 56 67
e 56 68
e 56 69
e 56 75
e 56 81
e 56 82
e 56 90
e 56 94
e 56 97
e 56 98
e 56 100
e 56 101
e 56 102
e 56 103
e 56 107
e 56 108
e 56 110
e 56 111
e 56 115
e 56 121
e 56 123
e 56 127
e 56 130
e 56 132
e 56 137
e 56 138
e 56 139
e 56 140
e 56 142
e 56 143
e 56 149
e 57 58
e 57 60
e 57 66
e 57 74
e 57 76
e 57 79
e 57 80
e 57 81
e 57 83
e 57 85
e 57 88
e 57 89
e 57 98
e 57 99
e 57 100
e 57 104
e 57 105
e 57 106
e 57 107
e 57 109
e 57 110
e 57 113
e 57 115
e 57 116
e 57 117
e 57 118
e 57 119
e 57 121
e 57 123
e 57 126
e 57 129
e 57 130
e 57 135
e 57 138
e 57 139
e 57 143
e 57 145
e 57 146
e 57 148
e 57 150
e 58 59
e 58 62
e 58 63
e 58 65
e 58 69
e 58 70
e 58 71
e 58 72
e 58 76
e 58 82
e 58 83
e 58 84
e 58 85
e 58 89
e 58 90
e 58 92
e 58 95
e 58 96
e 58 97
e 58 99
e 58 101
e 58 102
e 58 103
e 58 104
e 58 105
e 58 106
e 58 108
e 58 109
e 58 110
e 58 119
e 58 120
e 58 124
e 58 126
e 58 127
e 58 133
e 58 135
e 58 137
e 58 139
e 58 140
e 58 142
e 58 144
e 58 147
e 58 150
e 59 61
e 59 69
e 59 72
e 59 76
e 59 78
e 59 82
e 59 85
e 59 86
e 59 87
e 59 88
e 59 95
e 59 97
e 59 98
e 59 99
e 59 100
e 59 104
e 59 108
e 59 110
e 59 115
e 59 118
e 59 119
e 59 120
e 59 123
e 59 125
e 59 127
e 59 128
e 59 132
e 59 138
e 59 139
e 59 140
e 59 141
e 59 142
e 59 143
e 59 146
e 59 148
e 60 64
e 60 65
e 60 69
e 60 70
e 60 71
e 60 73
e 60 77
e 60 79
e 60 80
e 60 81
e 60 82
e 60 87
e 60 88
e 60 94
e 60 96
e 60 98
e 60 102
e 60 105
e 60 108
e 60 111
e 60 118
e 60 119
e 60 120
e 60 121
e 60 123
e 60 124
e 60 125
e 60 127
e 60 128
e 60 136
e 60 138
e 60 140
e 60 141
e 60 143
e 60 146
e 60 147
e 61 62
e 61 65
e 61 71
e 61 72
e 61 73
e 61 74
e 61 77
e 61 78
e 61 83
e 61 84
e 61 86
e 61 94
e 61 96
e 61 98
e 61 100
e 61 102
e 61 106
e 61 113
e 61 115
e 61 116
e 61 117
e 61 118
e 61 121
e 61 122
e 61 126
e 61 128
e 61 131
e 61 142
e 61 145
e 61 146
e 61 150
e 62 63
e 62 65
e 62 67
e 62 70
e 62 71
e 62 73
e 62 76
e 62 77
e 62 79
e 62 82
e 62 85
e 62 87
e 62 90
e 62 91
e 62 94
e 62 95
e 62 97
e 62 100
e 62 102
e 62 103
e 62 104
e 62 105
e 62 106
e 62 113
e 62 114
e 62 118
e 62 119
e 62 122
e 62 127
e 62 129
e 62 130
e 62 132
e 62 134
e 62 137
e 62 141
e 62 145
e 62 147
e 62 148
e 62 150
e 63 64
e 63 66
e 63 69
e 63 70
e 63 75
e 63 76
e 63 81
e 63 90
e 63 91
e 63 92
e 63 94
e 63 96
e 63 97
e 63 104
e 63 105
e 63 107
e 63 108
e 63 113
e 63 114
e 63 116
e 63 117
e 63 121
e 63 122
e 63 124
e 63 126
e 63 134
e 63 135
e 63 138
e 63 141
e 63 147
e 63 148
e 64 69
e 64 70
e 64 71
e 64 77
e 64 79
e 64 84
e 64 85
e 64 86
e 64 89
e 64 91
e 64 92
e 64 93
e 64 95
e 64 99
e 64 100
e 64 102
e 64 105
e 64 109
e 64 112
e 64 115
e 64 116
e 64 117
e 64 123
e 64 124
e 64 126
e 64 127
e 64 133
e 64 134
e 64 138
e 64 142
e 64 143
e 64 145
e 64 146
e 64 148
e 64 149
e 65 66
e 65 67
e 65 68
e 65 69
e 65 70
e 65 71
e 65 76
e 65 77
e 65 80
e 65 83
e 65 87
e 65 88
e 65 95
e 65 97
e 65 100
e 65 102
e 65 103
e 65 104
e 65 106
e 65 108
e 65 110
e 65 112
e 65 113
e 65 115
e 65 119
e 65 125
e 65 126
e 65 128
e 65 129
e 65 134
e 65 135
e 65 136
e 65 137
e 65 139
e 65 142
e 65 144
e 65 147
e 65 149
e 66 68
e 66 70
e 66 77
e 66 80
e 66 82
e 66 84
e 66 89
e 66 91
e 66 92
e 66 93
e 66 99
e 66 101
e 66 102
e 66 103
e 66 105
e 66 107
e 66 108
e 66 109
e 66 112
e 66 113
e 66 121
e 66 124
e 66 126
e 66 127
e 66 129
e 66 132
e 66 133
e 66 135
e 66 136
e 66 138
e 66 139
e 66 140
e 66 144
e 66 146
e 66 147
e 66 148
e 66 149
e 66 150
e 67 68
e 67 71
e 67 75
e 67 76
e 67 79
e 67 82
e 67 83
e 67 84
e 67 86
e 67 88
e 67 89
e 67 93
e 67 96
e 67 101
e 67 102
e 67 105
e 67 114
e 67 115
e 67 119
e 67 126
e 67 130
e 67 131
e 67 135
e 67 137
e 67 143
e 67 145
e 67 147
e 67 149
e 67 150
e 68 69
e 68 77
e 68 80
e 68 81
e 68 83
e 68 85
e 68 86
e 68 87
e 68 95
e 68 96
e 68 107
e 68 110
e 68 113
e 68 114
e 68 119
e 68 121
e 68 122
e 68 127
e 68 129
e 68 130
e 68 131
e 68 132
e 68 133
e 68 134
e 68 137
e 68 140
e 68 141
e 68 143
e 69 71
e 69 73
e 69 76
e 69 77
e 69 81
e 69 84
e 69 85
e 69 86
e 69 87
e 69 89
e 69 90
e 69 93
e 69 103
e 69 106
e 69 107
e 69 108
e 69 109
e 69 113
e 69 114
e 69 115
e 69 116
e 69 117
e 69 119
e 69 121
e 69 126
e 69 127
e 69 129
e 69 130
e 69 132
e 69 136
e 69 138
e 69 139
e 69 141
e 69 143
e 69 147
e 69 148
e 69 149
e 69 150
e 70 72
e 70 73
e 70 75
e 70 76
e 70 77
e 70 78
e 70 80
e 70 81
e 70 82
e 70 83
e 70 86
e 70 87
e 70 89
e 70 94
e 70 99
e 70 101
e 70 102
e 70 103
e 70 104
e 70 109
e 70 112
e 70 118
e 70 119
e 70 120
e 70 121
e 70 122
e 70 123
e 70 125
e 70 128
e 70 130
e 70 140
e 70 141
e 70 142
e 70 143
e 70 146
e 70 148
e 70 149
e 71 72
e 71 73
e 71 80
e 71 81
e 71 82
e 71 83
e 71 85
e 71 86
e 71 88
e 71 89
e 71 90
e 71 91
e 71 98
e 71 101
e 71 103
e 71 110
e 71 111
e 71 114
e 71 115
e 71 119
e 71 121
e 71 124
e 71 125
e 71 127
e 71 129
e 71 131
e 71 136
e 71 137
e 71 138
e 71 139
e 71 146
e 72 74
e 72 75
e 72 78
e 72 85
e 72 88
e 72 89
e 72 91
e 72 94
e 72 95
e 72 101
e 72 102
e 72 104
e 72 113
e 72 114
e 72 117
e 72 121
e 72 124
e 72 125
e 72 126
e 72 129
e 72 130
e 72 132
e 72 133
e 72 135
e 72 136
e 72 139
e 72 142
e 72 143
e 72 145
e 72 148
e 72 149
e 72 150
e 73 77
e 73 82
e 73 83
e 73 84
e 73 85
e 73 89
e 73 93
e 73 102
e 73 103
e 73 105
e 73 107
e 73 109
e 73 113
e 73 114
e 73 117
e 73 118
e 73 119
e 73 122
e 73 123
e 73 126
e 73 127
e 73 128
e 73 131
e 73 132
e 73 138
e 73 139
e 73 140
e 73 141
e 73 145
e 73 150
e 74 75
e 74 78
e 74 80
e 74 81
e 74 82
e 74 87
e 74 88
e 74 92
e 74 97
e 74 99
e 74 101
e 74 103
e 74 104
e 74 108
e 74 110
e 74 113
e 74 114
e 74 116
e 74 117
e 74 118
e 74 121
e 74 128
e 74 133
e 74 134
e 74 136
e 74 139
e 74 142
e 74 143
e 74 150
e 75 77
e 75 79
e 75 82
e 75 84
e 75 85
e 75 87
e 75 89
e 75 93
e 75 96
e 75 100
e 75 101
e 75 102
e 75 104
e 75 106
e 75 107
e 75 108
e 75 113
e 75 114
e 75 115
e 75 120
e 75 122
e 75 127
e 75 129
e 75 132
e 75 136
e 75 137
e 75 139
e 75 148
e 75 149
e 76 82
e 76 94
e 76 98
e 76 99
e 76 105
e 76 106
e 76 108
e 76 110
e 76 111
e 76 118
e 76 121
e 76 125
e 76 126
e 76 132
e 76 134
e 76 136
e 76 138
e 76 140
e 76 141
e 76 143
e 77 79
e 77 86
e 77 87
e 77 89
e 77 90
e 77 93
e 77 95
e 77 96
e 77 97
e 77 100
e 77 104
e 77 108
e 77 110
e 77 111
e 77 112
e 77 114
e 77 120
e 77 121
e 77 124
e 77 129
e 77 132
e 77 133
e 77 134
e 77 138
e 77 139
e 77 140
e 77 143
e 78 79
e 78 81
e 78 82
e 78 84
e 78 94
e 78 95
e 78 96
e 78 97
e 78 98
e 78 104
e 78 105
e 78 112
e 78 118
e 78 119
e 78 123
e 78 125
e 78 131
e 78 132
e 78 137
e 78 138
e 78 140
e 78 142
e 78 143
e 78 149
e 78 150
e 79 82
e 79 86
e 79 88
e 79 92
e 79 95
e 79 100
e 79 104
e 79 111
e 79 113
e 79 115
e 79 120
e 79 130
e 79 131
e 79 132
e 79 134
e 79 135
e 79 136
e 79 137
e 79 142
e 79 145
e 79 146
e 80 81
e 80 87
e 80 88
e 80 90
e 80 91
e 80 93
e 80 95
e 80 101
e 80 105
e 80 107
e 80 108
e 80 109
e 80 115
e 80 120
e 80 123
e 80 128
e 80 136
e 80 139
e 80 141
e 80 144
e 80 149
e 81 84
e 81 89
e 81 92
e 81 93
e 81 99
e 81 100
e 81 101
e 81 102
e 81 104
e 81 108
e 81 109
e 81 111
e 81 112
e 81 116
e 81 118
e 81 120
e 81 126
e 81 129
e 81 130
e 81 135
e 81 136
e 81 137
e 81 139
e 81 140
e 81 142
e 81 144
e 81 149
e 81 150
e 82 84
e 82 91
e 82 94
e 82 95
e 82 98
e 82 100
e 82 102
e 82 107
e 82 112
e 82 114
e 82 116
e 82 117
e 82 119
e 82 123
e 82 124
e 82 125
e 82 130
e 82 131
e 82 133
e 82 134
e 82 136
e 82 139
e 82 141
e 82 143
e 82 144
e 82 145
e 82 146
e 82 149
e 82 150
e 83 89
e 83 94
e 83 97
e 83 99
e 83 100
e 83 101
e 83 102
e 83 104
e 83 105
e 83 107
e 83 108
e 83 109
e 83 115
e 83 120
e 83 130
e 83 131
e 83 134
e 83 138
e 83 140
e 83 141
e 83 144
e 83 146
e 83 147
e 83 148
e 84 85
e 84 88
e 84 89
e 84 90
e 84 94
e 84 95
e 84 97
e 84 101
e 84 102
e 84 105
e 84 107
e 84 113
e 84 117
e 84 119
e 84 121
e 84 122
e 84 124
e 84 126
e 84 127
e 84 128
e 84 130
e 84 135
e 84 136
e 84 137
e 84 138
e 84 141
e 84 142
e 84 143
e 84 144
e 84 148
e 84 149
e 85 89
e 85 92
e 85 93
e 85 95
e 85 100
e 85 102
e 85 103
e 85 106
e 85 108
e 85 109
e 85 110
e 85 113
e 85 114
e 85 116
e 85 118
e 85 120
e 85 122
e 85 125
e 85 127
e 85 128
e 85 129
e 85 130
e 85 131
e 85 132
e 85 134
e 85 135
e 85 140
e 85 141
e 85 144
e 85 145
e 85 146
e 85 147
e 85 149
e 85 150
e 86 89
e 86 90
e 86 92
e 86 93
e 86 94
e 86 95
e 86 96
e 86 98
e 86 99
e 86 102
e 86 105
e 86 108
e 86 109
e 86 113
e 86 116
e 86 118
e 86 119
e 86 120
e 86 127
e 86 131
e 86 132
e 86 133
e 86 135
e 86 138
e 86 140
e 86 142
e 86 143
e 86 146
e 86 148
e 86 150
e 87 89
e 87 91
e 87 92
e 87 93
e 87 96
e 87 113
e 87 114
e 87 118
e 87 119
e 87 120
e 87 125
e 87 128
e 87 129
e 87 130
e 87 133
e 87 134
e 87 135
e 87 137
e 87 138
e 87 140
e 87 141
e 87 142
e 88 89
e 88 91
e 88 93
e 88 95
e 88 98
e 88 100
e 88 101
e 88 104
e 88 111
e 88 113
e 88 116
e 88 118
e 88 121
e 88 123
e 88 127
e 88 129
e 88 135
e 88 136
e 88 137
e 88 141
e 88 146
e 88 147
e 89 91
e 89 93
e 89 94
e 89 97
e 89 99
e 89 102
e 89 105
e 89 107
e 89 108
e 89 109
e 89 111
e 89 112
e 89 113
e 89 114
e 89 115
e 89 117
e 89 119
e 89 123
e 89 126
e 89 128
e 89 131
e 89 132
e 89 133
e 89 136
e 89 137
e 89 141
e 89 143
e 89 145
e 89 146
e 89 150
e 90 91
e 90 93
e 90 97
e 90 98
e 90 101
e 90 102
e 90 107
e 90 109
e 90 110
e 90 112
e 90 116
e 90 121
e 90 123
e 90 124
e 90 125
e 90 126
e 90 127
e 90 131
e 90 134
e 90 146
e 91 94
e 91 96
e 91 97
e 91 102
e 91 104
e 91 108
e 91 112
e 91 114
e 91 117
e 91 118
e 91 128
e 91 129
e 91 130
e 91 131
e 91 132
e 91 133
e 91 135
e 91 140
e 91 141
e 91 142
e 91 143
e 91 144
e 91 146
e 91 147
e 91 148
e 91 149
e 92 96
e 92 100
e 92 103
e 92 105
e 92 107
e 92 108
e 92 115
e 92 121
e 92 125
e 92 128
e 92 129
e 92 130
e 92 131
e 92 132
e 92 133
e 92 135
e 92 138
e 92 143
e 92 144
e 92 146
e 93 96
e 93 98
e 93 100
e 93 105
e 93 109
e 93 115
e 93 121
e 93 126
e 93 127
e 93 136
e 93 138
e 93 141
e 93 146
e 93 147
e 93 149
e 94 95
e 94 96
e 94 97
e 94 98
e 94 100
e 94 103
e 94 105
e 94 106
e 94 108
e 94 111
e 94 113
e 94 118
e 94 119
e 94 120
e 94 122
e 94 123
e 94 124
e 94 125
e 94 128
e 94 131
e 94 132
e 94 133
e 94 134
e 94 135
e 94 138
e 94 141
e 94 142
e 94 145
e 94 150
e 95 96
e 95 98
e 95 99
e 95 105
e 95 112
e 95 119
e 95 120
e 95 123
e 95 125
e 95 126
e 95 128
e 95 130
e 95 131
e 95 132
e 95 139
e 95 140
e 95 144
e 95 146
e 95 148
e 95 149
e 96 98
e 96 100
e 96 102
e 96 105
e 96 107
e 96 113
e 96 115
e 96 117
e 96 118
e 96 121
e 96 126
e 96 128
e 96 129
e 96 130
e 96 133
e 96 134
e 96 136
e 96 137
e 96 138
e 96 139
e 96 141
e 96 142
e 96 147
e 97 99
e 97 102
e 97 104
e 97 105
e 97 107
e 97 108
e 97 112
e 97 115
e 97 116
e 97 123
e 97 124
e 97 126
e 97 128
e 97 129
e 97 130
e 97 133
e 97 138
e 97 140
e 97 142
e 97 146
e 97 148
e 97 150
e 98 100
e 98 105
e 98 106
e 98 109
e 98 113
e 98 117
e 98 118
e 98 121
e 98 123
e 98 124
e 98 126
e 98 130
e 98 132
e 98 136
e 98 138
e 98 139
e 98 141
e 98 142
e 98 143
e 98 146
e 98 149
e 99 100
e 99 101
e 99 102
e 99 109
e 99 110
e 99 111
e 99 114
e 99 116
e 99 118
e 99 123
e 99 124
e 99 125
e 99 126
e 99 127
e 99 129
e 99 131
e 99 132
e 99 135
e 99 138
e 99 139
e 99 142
e 99 145
e 100 101
e 100 103
e 100 108
e 100 109
e 100 110
e 100 112
e 100 113
e 100 121
e 100 122
e 100 127
e 100 134
e 100 135
e 100 138
e 100 140
e 100 143
e 101 108
e 101 109
e 101 111
e 101 112
e 101 113
e 101 114
e 101 115
e 101 117
e 101 120
e 101 123
e 101 132
e 101 133
e 101 136
e 101 137
e 101 139
e 101 142
e 101 150
e 102 104
e 102 107
e 102 109
e 102 115
e 102 121
e 102 122
e 102 124
e 102 126
e 102 130
e 102 131
e 102 133
e 102 134
e 102 138
e 102 142
e 102 147
e 103 105
e 103 110
e 103 113
e 103 114
e 103 115
e 103 116
e 103 119
e 103 121
e 103 122
e 103 123
e 103 125
e 103 129
e 103 134
e 103 140
e 103 142
e 103 146
e 103 150
e 104 111
e 104 112
e 104 115
e 104 119
e 104 122
e 104 124
e 104 125
e 104 129
e 104 134
e 104 136
e 104 138
e 104 145
e 104 146
e 104 149
e 105 106
e 105 111
e 105 115
e 105 117
e 105 119
e 105 120
e 105 128
e 105 129
e 105 133
e 105 135
e 105 150
e 106 107
e 106 108
e 106 110
e 106 111
e 106 113
e 106 115
e 106 116
e 106 117
e 106 119
e 106 122
e 106 125
e 106 133
e 106 136
e 106 137
e 106 138
e 106 139
e 106 140
e 106 142
e 106 143
e 106 145
e 106 149
e 107 108
e 107 113
e 107 116
e 107 119
e 107 123
e 107 124
e 107 125
e 107 128
e 107 130
e 107 131
e 107 133
e 107 135
e 107 139
e 107 141
e 107 142
e 107 143
e 107 147
e 107 148
e 107 149
e 108 111
e 108 112
e 108 115
e 108 117
e 108 122
e 108 125
e 108 126
e 108 129
e 108 131
e 108 136
e 108 139
e 108 144
e 108 146
e 108 148
e 109 111
e 109 112
e 109 115
e 109 116
e 109 118
e 109 122
e 109 123
e 109 125
e 109 131
e 109 132
e 109 134
e 109 136
e 109 145
e 109 149
e 110 112
e 110 116
e 110 117
e 110 122
e 110 127
e 110 131
e 110 135
e 110 138
e 110 139
e 110 140
e 110 141
e 110 143
e 110 144
e 110 146
e 111 114
e 111 117
e 111 118
e 111 120
e 111 121
e 111 122
e 111 126
e 111 127
e 111 130
e 111 131
e 111 132
e 111 134
e 111 137
e 111 138
e 111 139
e 111 140
e 111 142
e 111 145
e 111 148
e 112 115
e 112 117
e 112 118
e 112 119
e 112 123
e 112 128
e 112 129
e 112 132
e 112 133
e 112 137
e 112 138
e 112 139
e 112 141
e 112 142
e 112 149
e 113 115
e 113 118
e 113 119
e 113 120
e 113 121
e 113 122
e 113 123
e 113 124
e 113 127
e 113 131
e 113 133
e 113 134
e 113 136
e 113 138
e 113 141
e 113 143
e 113 144
e 113 146
e 114 116
e 114 117
e 114 124
e 114 126
e 114 127
e 114 129
e 114 131
e 114 135
e 114 142
e 114 143
e 114 144
e 114 147
e 114 148
e 115 116
e 115 117
e 115 118
e 115 119
e 115 120
e 115 122
e 115 123
e 115 125
e 115 126
e 115 129
e 115 133
e 115 136
e 115 139
e 115 140
e 115 142
e 115 144
e 115 146
e 115 149
e 116 117
e 116 125
e 116 126
e 116 127
e 116 128
e 116 129
e 116 131
e 116 132
e 116 133
e 116 134
e 116 135
e 116 136
e 116 138
e 116 147
e 116 150
e 117 120
e 117 121
e 117 122
e 117 123
e 117 126
e 117 128
e 117 134
e 117 138
e 117 141
e 117 149
e 118 119
e 118 122
e 118 125
e 118 127
e 118 128
e 118 134
e 118 136
e 118 137
e 118 140
e 118 142
e 118 143
e 118 146
e 118 147
e 118 148
e 119 121
e 119 123
e 119 125
e 119 127
e 119 128
e 119 129
e 119 130
e 119 131
e 119 133
e 119 135
e 119 137
e 119 145
e 119 147
e 119 150
e 120 122
e 120 126
e 120 129
e 120 130
e 120 133
e 120 134
e 120 137
e 120 140
e 120 145
e 120 146
e 121 122
e 121 123
e 121 124
e 121 128
e 121 129
e 121 130
e 121 132
e 121 135
e 121 139
e 121 140
e 121 141
e 121 144
e 121 147
e 121 148
e 122 127
e 122 129
e 122 130
e 122 136
e 122 137
e 122 138
e 122 139
e 122 142
e 122 150
e 123 124
e 123 128
e 123 131
e 123 132
e 123 134
e 123 137
e 123 139
e 123 140
e 123 141
e 123 142
e 123 143
e 123 146
e 123 147
e 123 150
e 124 125
e 124 127
e 124 133
e 124 137
e 124 138
e 124 143
e 124 144
e 124 145
e 124 148
e 124 149
e 125 129
e 125 130
e 125 131
e 125 132
e 125 133
e 125 134
e 125 135
e 125 137
e 125 139
e 125 141
e 125 150
e 126 130
e 126 131
e 126 134
e 126 140
e 126 143
e 126 147
e 126 149
e 126 150
e 127 133
e 127 134
e 127 135
e 127 136
e 127 139
e 127 145
e 127 146
e 127 147
e 127 148
e 127 150
e 128 129
e 128 132
e 128 137
e 128 145
e 128 146
e 128 149
e 128 150
e 129 131
e 129 132
e 129 137
e 129 138
e 129 139
e 129 140
e 129 143
e 129 144
e 129 146
e 129 148
e 129 149
e 130 131
e 130 132
e 130 134
e 130 136
e 130 140
e 130 146
e 130 147
e 130 148
e 130 150
e 131 132
e 131 137
e 131 139
e 131 141
e 131 142
e 131 143
e 131 144
e 131 145
e 131 147
e 131 150
e 132 140
e 132 141
e 132 142
e 132 144
e 132 148
e 132 150
e 133 135
e 133 136
e 133 139
e 133 141
e 133 143
e 133 150
e 134 135
e 134 136
e 134 137
e 134 139
e 134 140
e 134 142
e 134 143
e 134 145
e 134 146
e 134 149
e 135 138
e 135 139
e 135 140
e 135 143
e 135 144
e 135 147
e 135 149
e 136 137
e 136 138
e 136 139
e 136 140
e 136 142
e 136 143
e 136 144
e 136 146
e 136 147
e 136 149
e 137 139
e 137 140
e 137 143
e 137 144
e 137 146
e 137 147
e 137 148
e 137 149
e 138 144
e 138 146
e 139 140
e 139 142
e 140 141
e 140 142
e 140 143
e 140 146
e 140 148
e 140 150
e 141 144
e 141 147
e 141 149
e 141 150
e 142 143
e 142 145
e 142 148
e 143 145
e 143 147
e 143 148
e 144 146
e 144 147
e 144 148
e 144 149
e 144 150
e 145 146
e 147 148
e 147 150
e 148 150
